c description: Perfect Matching Principle on 
c generator: CNFgen (0.9.0)
c copyright: (C) 2012-2020 Massimo Lauria <massimo.lauria@uniroma1.it>
c url: https://massimolauria.net/cnfgen
c
p cnf 120 969
-1 -2 0
-1 -3 0
-1 -4 0
-1 -5 0
-1 -6 0
-1 -7 0
-1 -8 0
-1 -9 0
-2 -3 0
-2 -4 0
-2 -5 0
-2 -6 0
-2 -7 0
-2 -8 0
-2 -9 0
-3 -4 0
-3 -5 0
-3 -6 0
-3 -7 0
-3 -8 0
-3 -9 0
-4 -5 0
-4 -6 0
-4 -7 0
-4 -8 0
-4 -9 0
-5 -6 0
-5 -7 0
-5 -8 0
-5 -9 0
-6 -7 0
-6 -8 0
-6 -9 0
-7 -8 0
-7 -9 0
-8 -9 0
1 2 3 4 5 6 7 8 9 0
-1 -10 0
-1 -11 0
-1 -12 0
-1 -13 0
-1 -14 0
-1 -15 0
-1 -16 0
-1 -17 0
-10 -11 0
-10 -12 0
-10 -13 0
-10 -14 0
-10 -15 0
-10 -16 0
-10 -17 0
-11 -12 0
-11 -13 0
-11 -14 0
-11 -15 0
-11 -16 0
-11 -17 0
-12 -13 0
-12 -14 0
-12 -15 0
-12 -16 0
-12 -17 0
-13 -14 0
-13 -15 0
-13 -16 0
-13 -17 0
-14 -15 0
-14 -16 0
-14 -17 0
-15 -16 0
-15 -17 0
-16 -17 0
1 10 11 12 13 14 15 16 17 0
-10 -18 0
-10 -19 0
-10 -20 0
-10 -21 0
-10 -22 0
-10 -23 0
-10 -24 0
-10 -25 0
-10 -26 0
-10 -27 0
-18 -19 0
-18 -20 0
-18 -21 0
-18 -22 0
-18 -23 0
-18 -24 0
-18 -25 0
-18 -26 0
-18 -27 0
-19 -20 0
-19 -21 0
-19 -22 0
-19 -23 0
-19 -24 0
-19 -25 0
-19 -26 0
-19 -27 0
-20 -21 0
-20 -22 0
-20 -23 0
-20 -24 0
-20 -25 0
-20 -26 0
-20 -27 0
-21 -22 0
-21 -23 0
-21 -24 0
-21 -25 0
-21 -26 0
-21 -27 0
-22 -23 0
-22 -24 0
-22 -25 0
-22 -26 0
-22 -27 0
-23 -24 0
-23 -25 0
-23 -26 0
-23 -27 0
-24 -25 0
-24 -26 0
-24 -27 0
-25 -26 0
-25 -27 0
-26 -27 0
10 18 19 20 21 22 23 24 25 26 27 0
-28 -29 0
-28 -30 0
-28 -31 0
-28 -32 0
-28 -33 0
-29 -30 0
-29 -31 0
-29 -32 0
-29 -33 0
-30 -31 0
-30 -32 0
-30 -33 0
-31 -32 0
-31 -33 0
-32 -33 0
28 29 30 31 32 33 0
-11 -34 0
-11 -35 0
-11 -36 0
-11 -37 0
-11 -38 0
-11 -39 0
-11 -40 0
-11 -41 0
-34 -35 0
-34 -36 0
-34 -37 0
-34 -38 0
-34 -39 0
-34 -40 0
-34 -41 0
-35 -36 0
-35 -37 0
-35 -38 0
-35 -39 0
-35 -40 0
-35 -41 0
-36 -37 0
-36 -38 0
-36 -39 0
-36 -40 0
-36 -41 0
-37 -38 0
-37 -39 0
-37 -40 0
-37 -41 0
-38 -39 0
-38 -40 0
-38 -41 0
-39 -40 0
-39 -41 0
-40 -41 0
11 34 35 36 37 38 39 40 41 0
-42 -43 0
-42 -44 0
-42 -45 0
-42 -46 0
-42 -47 0
-43 -44 0
-43 -45 0
-43 -46 0
-43 -47 0
-44 -45 0
-44 -46 0
-44 -47 0
-45 -46 0
-45 -47 0
-46 -47 0
42 43 44 45 46 47 0
-12 -48 0
-12 -49 0
-12 -50 0
-12 -51 0
-12 -52 0
-48 -49 0
-48 -50 0
-48 -51 0
-48 -52 0
-49 -50 0
-49 -51 0
-49 -52 0
-50 -51 0
-50 -52 0
-51 -52 0
12 48 49 50 51 52 0
-18 -42 0
-18 -53 0
-18 -54 0
-18 -55 0
-42 -53 0
-42 -54 0
-42 -55 0
-53 -54 0
-53 -55 0
-54 -55 0
18 42 53 54 55 0
-2 -13 0
-2 -19 0
-2 -28 0
-2 -34 0
-2 -43 0
-2 -56 0
-2 -57 0
-2 -58 0
-2 -59 0
-2 -60 0
-13 -19 0
-13 -28 0
-13 -34 0
-13 -43 0
-13 -56 0
-13 -57 0
-13 -58 0
-13 -59 0
-13 -60 0
-19 -28 0
-19 -34 0
-19 -43 0
-19 -56 0
-19 -57 0
-19 -58 0
-19 -59 0
-19 -60 0
-28 -34 0
-28 -43 0
-28 -56 0
-28 -57 0
-28 -58 0
-28 -59 0
-28 -60 0
-34 -43 0
-34 -56 0
-34 -57 0
-34 -58 0
-34 -59 0
-34 -60 0
-43 -56 0
-43 -57 0
-43 -58 0
-43 -59 0
-43 -60 0
-56 -57 0
-56 -58 0
-56 -59 0
-56 -60 0
-57 -58 0
-57 -59 0
-57 -60 0
-58 -59 0
-58 -60 0
-59 -60 0
2 13 19 28 34 43 56 57 58 59 60 0
-14 -29 0
-14 -35 0
-14 -56 0
-14 -61 0
-14 -62 0
-14 -63 0
-14 -64 0
-14 -65 0
-14 -66 0
-14 -67 0
-29 -35 0
-29 -56 0
-29 -61 0
-29 -62 0
-29 -63 0
-29 -64 0
-29 -65 0
-29 -66 0
-29 -67 0
-35 -56 0
-35 -61 0
-35 -62 0
-35 -63 0
-35 -64 0
-35 -65 0
-35 -66 0
-35 -67 0
-56 -61 0
-56 -62 0
-56 -63 0
-56 -64 0
-56 -65 0
-56 -66 0
-56 -67 0
-61 -62 0
-61 -63 0
-61 -64 0
-61 -65 0
-61 -66 0
-61 -67 0
-62 -63 0
-62 -64 0
-62 -65 0
-62 -66 0
-62 -67 0
-63 -64 0
-63 -65 0
-63 -66 0
-63 -67 0
-64 -65 0
-64 -66 0
-64 -67 0
-65 -66 0
-65 -67 0
-66 -67 0
14 29 35 56 61 62 63 64 65 66 67 0
-20 -61 0
-20 -68 0
-20 -69 0
-20 -70 0
-20 -71 0
-20 -72 0
-20 -73 0
-20 -74 0
-61 -68 0
-61 -69 0
-61 -70 0
-61 -71 0
-61 -72 0
-61 -73 0
-61 -74 0
-68 -69 0
-68 -70 0
-68 -71 0
-68 -72 0
-68 -73 0
-68 -74 0
-69 -70 0
-69 -71 0
-69 -72 0
-69 -73 0
-69 -74 0
-70 -71 0
-70 -72 0
-70 -73 0
-70 -74 0
-71 -72 0
-71 -73 0
-71 -74 0
-72 -73 0
-72 -74 0
-73 -74 0
20 61 68 69 70 71 72 73 74 0
-44 -53 0
-44 -75 0
-44 -76 0
-44 -77 0
-44 -78 0
-44 -79 0
-44 -80 0
-53 -75 0
-53 -76 0
-53 -77 0
-53 -78 0
-53 -79 0
-53 -80 0
-75 -76 0
-75 -77 0
-75 -78 0
-75 -79 0
-75 -80 0
-76 -77 0
-76 -78 0
-76 -79 0
-76 -80 0
-77 -78 0
-77 -79 0
-77 -80 0
-78 -79 0
-78 -80 0
-79 -80 0
44 53 75 76 77 78 79 80 0
-30 -57 0
-30 -81 0
-30 -82 0
-30 -83 0
-30 -84 0
-57 -81 0
-57 -82 0
-57 -83 0
-57 -84 0
-81 -82 0
-81 -83 0
-81 -84 0
-82 -83 0
-82 -84 0
-83 -84 0
30 57 81 82 83 84 0
-85 -86 0
-85 -87 0
-86 -87 0
85 86 87 0
-3 -36 0
-3 -48 0
-3 -54 0
-3 -62 0
-36 -48 0
-36 -54 0
-36 -62 0
-48 -54 0
-48 -62 0
-54 -62 0
3 36 48 54 62 0
-21 -37 0
-21 -49 0
-21 -88 0
-37 -49 0
-37 -88 0
-49 -88 0
21 37 49 88 0
-4 -31 0
-4 -68 0
-4 -75 0
-4 -89 0
-4 -90 0
-4 -91 0
-4 -92 0
-4 -93 0
-31 -68 0
-31 -75 0
-31 -89 0
-31 -90 0
-31 -91 0
-31 -92 0
-31 -93 0
-68 -75 0
-68 -89 0
-68 -90 0
-68 -91 0
-68 -92 0
-68 -93 0
-75 -89 0
-75 -90 0
-75 -91 0
-75 -92 0
-75 -93 0
-89 -90 0
-89 -91 0
-89 -92 0
-89 -93 0
-90 -91 0
-90 -92 0
-90 -93 0
-91 -92 0
-91 -93 0
-92 -93 0
4 31 68 75 89 90 91 92 93 0
-5 -15 0
-5 -50 0
-5 -58 0
-5 -63 0
-5 -81 0
-5 -85 0
-5 -89 0
-5 -94 0
-5 -95 0
-5 -96 0
-5 -97 0
-15 -50 0
-15 -58 0
-15 -63 0
-15 -81 0
-15 -85 0
-15 -89 0
-15 -94 0
-15 -95 0
-15 -96 0
-15 -97 0
-50 -58 0
-50 -63 0
-50 -81 0
-50 -85 0
-50 -89 0
-50 -94 0
-50 -95 0
-50 -96 0
-50 -97 0
-58 -63 0
-58 -81 0
-58 -85 0
-58 -89 0
-58 -94 0
-58 -95 0
-58 -96 0
-58 -97 0
-63 -81 0
-63 -85 0
-63 -89 0
-63 -94 0
-63 -95 0
-63 -96 0
-63 -97 0
-81 -85 0
-81 -89 0
-81 -94 0
-81 -95 0
-81 -96 0
-81 -97 0
-85 -89 0
-85 -94 0
-85 -95 0
-85 -96 0
-85 -97 0
-89 -94 0
-89 -95 0
-89 -96 0
-89 -97 0
-94 -95 0
-94 -96 0
-94 -97 0
-95 -96 0
-95 -97 0
-96 -97 0
5 15 50 58 63 81 85 89 94 95 96 97 0
-69 -90 0
-69 -98 0
-69 -99 0
-69 -100 0
-69 -101 0
-90 -98 0
-90 -99 0
-90 -100 0
-90 -101 0
-98 -99 0
-98 -100 0
-98 -101 0
-99 -100 0
-99 -101 0
-100 -101 0
69 90 98 99 100 101 0
-70 -88 0
-70 -102 0
-70 -103 0
-70 -104 0
-88 -102 0
-88 -103 0
-88 -104 0
-102 -103 0
-102 -104 0
-103 -104 0
70 88 102 103 104 0
-38 -45 0
-38 -51 0
-38 -86 0
-38 -105 0
-38 -106 0
-38 -107 0
-38 -108 0
-45 -51 0
-45 -86 0
-45 -105 0
-45 -106 0
-45 -107 0
-45 -108 0
-51 -86 0
-51 -105 0
-51 -106 0
-51 -107 0
-51 -108 0
-86 -105 0
-86 -106 0
-86 -107 0
-86 -108 0
-105 -106 0
-105 -107 0
-105 -108 0
-106 -107 0
-106 -108 0
-107 -108 0
38 45 51 86 105 106 107 108 0
-22 -64 0
-22 -71 0
-22 -76 0
-22 -98 0
-22 -102 0
-22 -105 0
-22 -109 0
-22 -110 0
-22 -111 0
-22 -112 0
-64 -71 0
-64 -76 0
-64 -98 0
-64 -102 0
-64 -105 0
-64 -109 0
-64 -110 0
-64 -111 0
-64 -112 0
-71 -76 0
-71 -98 0
-71 -102 0
-71 -105 0
-71 -109 0
-71 -110 0
-71 -111 0
-71 -112 0
-76 -98 0
-76 -102 0
-76 -105 0
-76 -109 0
-76 -110 0
-76 -111 0
-76 -112 0
-98 -102 0
-98 -105 0
-98 -109 0
-98 -110 0
-98 -111 0
-98 -112 0
-102 -105 0
-102 -109 0
-102 -110 0
-102 -111 0
-102 -112 0
-105 -109 0
-105 -110 0
-105 -111 0
-105 -112 0
-109 -110 0
-109 -111 0
-109 -112 0
-110 -111 0
-110 -112 0
-111 -112 0
22 64 71 76 98 102 105 109 110 111 112 0
-23 -32 0
-23 -65 0
-23 -72 0
-23 -77 0
-23 -94 0
-23 -113 0
-23 -114 0
-23 -115 0
-32 -65 0
-32 -72 0
-32 -77 0
-32 -94 0
-32 -113 0
-32 -114 0
-32 -115 0
-65 -72 0
-65 -77 0
-65 -94 0
-65 -113 0
-65 -114 0
-65 -115 0
-72 -77 0
-72 -94 0
-72 -113 0
-72 -114 0
-72 -115 0
-77 -94 0
-77 -113 0
-77 -114 0
-77 -115 0
-94 -113 0
-94 -114 0
-94 -115 0
-113 -114 0
-113 -115 0
-114 -115 0
23 32 65 72 77 94 113 114 115 0
-6 -16 0
-6 -46 0
-6 -59 0
-6 -73 0
-6 -78 0
-6 -87 0
-6 -95 0
-6 -99 0
-6 -103 0
-6 -116 0
-16 -46 0
-16 -59 0
-16 -73 0
-16 -78 0
-16 -87 0
-16 -95 0
-16 -99 0
-16 -103 0
-16 -116 0
-46 -59 0
-46 -73 0
-46 -78 0
-46 -87 0
-46 -95 0
-46 -99 0
-46 -103 0
-46 -116 0
-59 -73 0
-59 -78 0
-59 -87 0
-59 -95 0
-59 -99 0
-59 -103 0
-59 -116 0
-73 -78 0
-73 -87 0
-73 -95 0
-73 -99 0
-73 -103 0
-73 -116 0
-78 -87 0
-78 -95 0
-78 -99 0
-78 -103 0
-78 -116 0
-87 -95 0
-87 -99 0
-87 -103 0
-87 -116 0
-95 -99 0
-95 -103 0
-95 -116 0
-99 -103 0
-99 -116 0
-103 -116 0
6 16 46 59 73 78 87 95 99 103 116 0
-7 -17 0
-7 -39 0
-7 -47 0
-7 -82 0
-7 -100 0
-7 -109 0
-7 -113 0
-7 -117 0
-17 -39 0
-17 -47 0
-17 -82 0
-17 -100 0
-17 -109 0
-17 -113 0
-17 -117 0
-39 -47 0
-39 -82 0
-39 -100 0
-39 -109 0
-39 -113 0
-39 -117 0
-47 -82 0
-47 -100 0
-47 -109 0
-47 -113 0
-47 -117 0
-82 -100 0
-82 -109 0
-82 -113 0
-82 -117 0
-100 -109 0
-100 -113 0
-100 -117 0
-109 -113 0
-109 -117 0
-113 -117 0
7 17 39 47 82 100 109 113 117 0
-8 -24 0
-8 -40 0
-8 -60 0
-8 -79 0
-8 -83 0
-8 -91 0
-8 -116 0
-8 -118 0
-8 -119 0
-24 -40 0
-24 -60 0
-24 -79 0
-24 -83 0
-24 -91 0
-24 -116 0
-24 -118 0
-24 -119 0
-40 -60 0
-40 -79 0
-40 -83 0
-40 -91 0
-40 -116 0
-40 -118 0
-40 -119 0
-60 -79 0
-60 -83 0
-60 -91 0
-60 -116 0
-60 -118 0
-60 -119 0
-79 -83 0
-79 -91 0
-79 -116 0
-79 -118 0
-79 -119 0
-83 -91 0
-83 -116 0
-83 -118 0
-83 -119 0
-91 -116 0
-91 -118 0
-91 -119 0
-116 -118 0
-116 -119 0
-118 -119 0
8 24 40 60 79 83 91 116 118 119 0
-25 -92 0
-25 -106 0
-25 -110 0
-25 -118 0
-92 -106 0
-92 -110 0
-92 -118 0
-106 -110 0
-106 -118 0
-110 -118 0
25 92 106 110 118 0
-66 -80 0
-66 -96 0
-66 -107 0
-66 -111 0
-66 -114 0
-80 -96 0
-80 -107 0
-80 -111 0
-80 -114 0
-96 -107 0
-96 -111 0
-96 -114 0
-107 -111 0
-107 -114 0
-111 -114 0
66 80 96 107 111 114 0
-26 -33 0
-26 -67 0
-26 -101 0
-26 -108 0
-26 -112 0
-26 -119 0
-26 -120 0
-33 -67 0
-33 -101 0
-33 -108 0
-33 -112 0
-33 -119 0
-33 -120 0
-67 -101 0
-67 -108 0
-67 -112 0
-67 -119 0
-67 -120 0
-101 -108 0
-101 -112 0
-101 -119 0
-101 -120 0
-108 -112 0
-108 -119 0
-108 -120 0
-112 -119 0
-112 -120 0
-119 -120 0
26 33 67 101 108 112 119 120 0
-9 -27 0
-9 -41 0
-9 -52 0
-9 -55 0
-9 -74 0
-9 -84 0
-9 -93 0
-9 -97 0
-9 -104 0
-9 -115 0
-9 -117 0
-9 -120 0
-27 -41 0
-27 -52 0
-27 -55 0
-27 -74 0
-27 -84 0
-27 -93 0
-27 -97 0
-27 -104 0
-27 -115 0
-27 -117 0
-27 -120 0
-41 -52 0
-41 -55 0
-41 -74 0
-41 -84 0
-41 -93 0
-41 -97 0
-41 -104 0
-41 -115 0
-41 -117 0
-41 -120 0
-52 -55 0
-52 -74 0
-52 -84 0
-52 -93 0
-52 -97 0
-52 -104 0
-52 -115 0
-52 -117 0
-52 -120 0
-55 -74 0
-55 -84 0
-55 -93 0
-55 -97 0
-55 -104 0
-55 -115 0
-55 -117 0
-55 -120 0
-74 -84 0
-74 -93 0
-74 -97 0
-74 -104 0
-74 -115 0
-74 -117 0
-74 -120 0
-84 -93 0
-84 -97 0
-84 -104 0
-84 -115 0
-84 -117 0
-84 -120 0
-93 -97 0
-93 -104 0
-93 -115 0
-93 -117 0
-93 -120 0
-97 -104 0
-97 -115 0
-97 -117 0
-97 -120 0
-104 -115 0
-104 -117 0
-104 -120 0
-115 -117 0
-115 -120 0
-117 -120 0
9 27 41 52 55 74 84 93 97 104 115 117 120 0